(set-logic QF_S)
(declare-fun var0 () String)
(declare-fun var1 () String)
(declare-fun var2 () Int)
(declare-fun var3 () String)
(declare-fun var4 () Int)
(declare-fun var5 () Int)
(declare-fun var6 () String)
(declare-fun var7 () Int)
(assert (< (str.indexof var0 var1 var2) (str.len var3)))
(assert (not (<= var4 var5)))
(assert (str.in.re (str.at (str.substr var6 var7 var2) (str.len var6)) (re.* re.allchar)))
(assert (str.suffixof (str.substr var1 var7 var5) (str.at var1 var5)))
(check-sat)